c FILE /home/rafael/Documents/HappySet/MIHS/inputs/happygen/output/graph_random_k5_p0.1_v100_20241127_083635.txt
c SOURCE This is a random graph formed for the happy graph colouring problem.
c DESCRIPTION It was generated using the problem generator of Rhyd Lewis
c
c GRAPH STATS
c Seed                             = 217214202
c Number of Nodes                  = 100
c Edge probability defined by user = 0.5
c Number of colours k              = 5
c Number of pre-assignments        = 10
c Actual density                   = 0.505455
c 
c The degrees of nodes 1 to 100, respectively, are as follows 
c [62, 61, 60, 58, 58, 58, 57, 57, 57, 56, 56, 56, 56, 56, 55, 55, 55, 55, 55, 55, 55, 54, 54, 54, 54, 54, 
c  54, 54, 54, 54, 54, 54, 53, 53, 53, 53, 53, 52, 52, 52, 52, 51, 51, 51, 51, 50, 50, 50, 50, 50, 50, 
c  50, 50, 49, 49, 49, 49, 49, 49, 49, 48, 48, 48, 48, 48, 48, 48, 48, 48, 48, 47, 47, 47, 47, 47, 47, 
c  47, 47, 46, 46, 46, 46, 46, 44, 44, 44, 44, 43, 43, 43, 43, 42, 42, 42, 41, 40, 39, 39, 39, 39] 
c  
p edge 100 2502 5
e 1 3
e 1 4
e 1 5
e 1 6
e 1 7
e 1 8
e 1 9
e 1 11
e 1 12
e 1 13
e 1 14
e 1 15
e 1 16
e 1 17
e 1 18
e 1 21
e 1 26
e 1 28
e 1 30
e 1 31
e 1 36
e 1 38
e 1 39
e 1 40
e 1 42
e 1 43
e 1 47
e 1 48
e 1 51
e 1 52
e 1 55
e 1 56
e 1 57
e 1 58
e 1 59
e 1 60
e 1 61
e 1 62
e 1 64
e 1 65
e 1 67
e 1 69
e 1 70
e 1 71
e 1 73
e 1 74
e 1 75
e 1 76
e 1 77
e 1 81
e 1 82
e 1 83
e 1 85
e 1 86
e 1 87
e 1 91
e 1 93
e 1 94
e 1 95
e 1 96
e 1 97
e 1 98
e 2 4
e 2 7
e 2 8
e 2 9
e 2 11
e 2 12
e 2 15
e 2 16
e 2 17
e 2 19
e 2 20
e 2 21
e 2 23
e 2 25
e 2 27
e 2 28
e 2 29
e 2 33
e 2 34
e 2 35
e 2 36
e 2 37
e 2 38
e 2 40
e 2 41
e 2 42
e 2 43
e 2 44
e 2 45
e 2 46
e 2 47
e 2 48
e 2 51
e 2 53
e 2 54
e 2 55
e 2 57
e 2 58
e 2 59
e 2 60
e 2 64
e 2 66
e 2 67
e 2 72
e 2 73
e 2 74
e 2 75
e 2 79
e 2 81
e 2 82
e 2 84
e 2 86
e 2 87
e 2 88
e 2 89
e 2 90
e 2 92
e 2 95
e 2 96
e 2 97
e 2 99
e 3 6
e 3 7
e 3 8
e 3 9
e 3 10
e 3 13
e 3 14
e 3 16
e 3 17
e 3 18
e 3 19
e 3 21
e 3 22
e 3 23
e 3 24
e 3 26
e 3 27
e 3 28
e 3 29
e 3 30
e 3 31
e 3 33
e 3 35
e 3 37
e 3 40
e 3 41
e 3 44
e 3 45
e 3 46
e 3 51
e 3 52
e 3 53
e 3 57
e 3 59
e 3 60
e 3 63
e 3 65
e 3 66
e 3 67
e 3 68
e 3 69
e 3 72
e 3 75
e 3 76
e 3 77
e 3 79
e 3 80
e 3 82
e 3 85
e 3 86
e 3 87
e 3 88
e 3 89
e 3 90
e 3 92
e 3 94
e 3 95
e 3 96
e 3 100
e 4 5
e 4 6
e 4 8
e 4 9
e 4 10
e 4 11
e 4 12
e 4 13
e 4 14
e 4 15
e 4 16
e 4 17
e 4 18
e 4 19
e 4 22
e 4 25
e 4 26
e 4 29
e 4 30
e 4 31
e 4 33
e 4 36
e 4 40
e 4 42
e 4 44
e 4 45
e 4 46
e 4 47
e 4 49
e 4 50
e 4 55
e 4 56
e 4 59
e 4 61
e 4 64
e 4 65
e 4 66
e 4 67
e 4 68
e 4 69
e 4 70
e 4 72
e 4 74
e 4 75
e 4 77
e 4 78
e 4 79
e 4 80
e 4 85
e 4 86
e 4 87
e 4 94
e 4 95
e 4 97
e 4 98
e 4 100
e 5 6
e 5 7
e 5 8
e 5 9
e 5 11
e 5 13
e 5 15
e 5 16
e 5 18
e 5 20
e 5 22
e 5 23
e 5 24
e 5 25
e 5 27
e 5 28
e 5 30
e 5 32
e 5 33
e 5 34
e 5 35
e 5 37
e 5 46
e 5 47
e 5 49
e 5 50
e 5 51
e 5 52
e 5 53
e 5 57
e 5 58
e 5 62
e 5 64
e 5 65
e 5 66
e 5 67
e 5 68
e 5 69
e 5 70
e 5 73
e 5 75
e 5 76
e 5 77
e 5 79
e 5 81
e 5 82
e 5 83
e 5 84
e 5 85
e 5 86
e 5 88
e 5 92
e 5 93
e 5 96
e 5 98
e 5 100
e 6 8
e 6 9
e 6 10
e 6 11
e 6 15
e 6 18
e 6 19
e 6 20
e 6 21
e 6 22
e 6 23
e 6 27
e 6 28
e 6 29
e 6 31
e 6 33
e 6 35
e 6 37
e 6 39
e 6 40
e 6 41
e 6 44
e 6 46
e 6 47
e 6 48
e 6 49
e 6 50
e 6 52
e 6 54
e 6 57
e 6 58
e 6 61
e 6 62
e 6 63
e 6 64
e 6 68
e 6 70
e 6 73
e 6 74
e 6 75
e 6 76
e 6 77
e 6 78
e 6 79
e 6 80
e 6 82
e 6 86
e 6 87
e 6 88
e 6 90
e 6 91
e 6 92
e 6 95
e 6 97
e 7 8
e 7 10
e 7 12
e 7 13
e 7 14
e 7 15
e 7 18
e 7 20
e 7 21
e 7 24
e 7 28
e 7 30
e 7 31
e 7 32
e 7 34
e 7 37
e 7 39
e 7 40
e 7 43
e 7 44
e 7 45
e 7 46
e 7 47
e 7 48
e 7 49
e 7 50
e 7 51
e 7 52
e 7 53
e 7 59
e 7 63
e 7 64
e 7 66
e 7 67
e 7 68
e 7 69
e 7 70
e 7 72
e 7 73
e 7 74
e 7 78
e 7 81
e 7 83
e 7 84
e 7 86
e 7 87
e 7 90
e 7 91
e 7 92
e 7 93
e 7 94
e 7 97
e 7 98
e 8 9
e 8 10
e 8 13
e 8 15
e 8 17
e 8 18
e 8 19
e 8 20
e 8 21
e 8 22
e 8 24
e 8 26
e 8 27
e 8 30
e 8 31
e 8 34
e 8 36
e 8 38
e 8 39
e 8 40
e 8 42
e 8 46
e 8 47
e 8 48
e 8 49
e 8 50
e 8 51
e 8 54
e 8 57
e 8 59
e 8 60
e 8 63
e 8 64
e 8 66
e 8 72
e 8 74
e 8 75
e 8 76
e 8 77
e 8 78
e 8 79
e 8 80
e 8 81
e 8 82
e 8 83
e 8 84
e 8 92
e 8 94
e 8 96
e 8 97
e 9 11
e 9 13
e 9 14
e 9 15
e 9 17
e 9 18
e 9 19
e 9 20
e 9 22
e 9 23
e 9 25
e 9 26
e 9 28
e 9 30
e 9 31
e 9 39
e 9 40
e 9 41
e 9 43
e 9 45
e 9 48
e 9 49
e 9 51
e 9 54
e 9 57
e 9 58
e 9 59
e 9 61
e 9 62
e 9 67
e 9 68
e 9 69
e 9 70
e 9 71
e 9 72
e 9 74
e 9 75
e 9 77
e 9 78
e 9 79
e 9 80
e 9 81
e 9 85
e 9 89
e 9 90
e 9 94
e 9 95
e 9 96
e 9 97
e 9 99
e 10 11
e 10 14
e 10 15
e 10 20
e 10 21
e 10 22
e 10 24
e 10 25
e 10 27
e 10 28
e 10 32
e 10 34
e 10 35
e 10 36
e 10 38
e 10 39
e 10 40
e 10 41
e 10 42
e 10 43
e 10 44
e 10 45
e 10 46
e 10 48
e 10 49
e 10 50
e 10 55
e 10 56
e 10 59
e 10 61
e 10 62
e 10 64
e 10 65
e 10 68
e 10 72
e 10 73
e 10 75
e 10 77
e 10 79
e 10 80
e 10 81
e 10 82
e 10 84
e 10 85
e 10 87
e 10 88
e 10 89
e 10 93
e 10 94
e 10 96
e 10 97
e 11 12
e 11 13
e 11 15
e 11 16
e 11 17
e 11 18
e 11 20
e 11 21
e 11 23
e 11 24
e 11 25
e 11 29
e 11 30
e 11 31
e 11 32
e 11 33
e 11 34
e 11 35
e 11 36
e 11 37
e 11 38
e 11 39
e 11 42
e 11 48
e 11 49
e 11 52
e 11 57
e 11 58
e 11 59
e 11 64
e 11 65
e 11 68
e 11 70
e 11 71
e 11 76
e 11 79
e 11 80
e 11 81
e 11 82
e 11 83
e 11 84
e 11 86
e 11 87
e 11 91
e 11 93
e 11 96
e 11 97
e 11 98
e 11 100
e 12 15
e 12 16
e 12 17
e 12 20
e 12 22
e 12 23
e 12 24
e 12 26
e 12 27
e 12 28
e 12 29
e 12 30
e 12 31
e 12 33
e 12 35
e 12 37
e 12 39
e 12 41
e 12 42
e 12 46
e 12 48
e 12 49
e 12 50
e 12 51
e 12 52
e 12 53
e 12 56
e 12 62
e 12 64
e 12 65
e 12 67
e 12 68
e 12 69
e 12 70
e 12 71
e 12 72
e 12 74
e 12 76
e 12 77
e 12 78
e 12 82
e 12 84
e 12 85
e 12 86
e 12 87
e 12 89
e 12 90
e 12 91
e 12 93
e 12 94
e 12 100
e 13 15
e 13 17
e 13 20
e 13 21
e 13 22
e 13 24
e 13 27
e 13 28
e 13 30
e 13 31
e 13 32
e 13 34
e 13 36
e 13 37
e 13 38
e 13 39
e 13 40
e 13 43
e 13 45
e 13 46
e 13 47
e 13 49
e 13 50
e 13 52
e 13 55
e 13 61
e 13 65
e 13 66
e 13 67
e 13 70
e 13 73
e 13 75
e 13 76
e 13 77
e 13 78
e 13 79
e 13 80
e 13 81
e 13 83
e 13 88
e 13 91
e 13 92
e 13 93
e 13 95
e 13 96
e 13 97
e 13 99
e 13 100
e 14 16
e 14 17
e 14 18
e 14 19
e 14 22
e 14 23
e 14 24
e 14 25
e 14 26
e 14 29
e 14 31
e 14 32
e 14 33
e 14 35
e 14 38
e 14 43
e 14 45
e 14 48
e 14 49
e 14 50
e 14 51
e 14 54
e 14 55
e 14 56
e 14 58
e 14 59
e 14 60
e 14 62
e 14 63
e 14 64
e 14 65
e 14 66
e 14 67
e 14 68
e 14 69
e 14 70
e 14 71
e 14 74
e 14 75
e 14 77
e 14 79
e 14 81
e 14 82
e 14 83
e 14 84
e 14 85
e 14 88
e 14 94
e 14 98
e 14 99
e 15 16
e 15 17
e 15 18
e 15 20
e 15 23
e 15 24
e 15 25
e 15 26
e 15 27
e 15 28
e 15 29
e 15 30
e 15 32
e 15 35
e 15 37
e 15 38
e 15 39
e 15 43
e 15 44
e 15 46
e 15 50
e 15 51
e 15 52
e 15 53
e 15 54
e 15 56
e 15 57
e 15 60
e 15 61
e 15 63
e 15 67
e 15 68
e 15 72
e 15 73
e 15 74
e 15 76
e 15 77
e 15 83
e 15 85
e 15 89
e 15 90
e 15 91
e 15 93
e 16 17
e 16 19
e 16 20
e 16 22
e 16 23
e 16 26
e 16 29
e 16 31
e 16 32
e 16 33
e 16 34
e 16 35
e 16 37
e 16 38
e 16 42
e 16 43
e 16 44
e 16 49
e 16 51
e 16 55
e 16 57
e 16 58
e 16 59
e 16 60
e 16 61
e 16 62
e 16 63
e 16 64
e 16 65
e 16 66
e 16 70
e 16 71
e 16 72
e 16 75
e 16 76
e 16 78
e 16 80
e 16 82
e 16 84
e 16 87
e 16 89
e 16 90
e 16 94
e 16 96
e 16 98
e 16 99
e 17 19
e 17 20
e 17 21
e 17 22
e 17 23
e 17 24
e 17 25
e 17 26
e 17 29
e 17 30
e 17 35
e 17 39
e 17 41
e 17 46
e 17 47
e 17 49
e 17 50
e 17 52
e 17 53
e 17 56
e 17 58
e 17 59
e 17 62
e 17 65
e 17 68
e 17 69
e 17 71
e 17 72
e 17 73
e 17 75
e 17 76
e 17 78
e 17 80
e 17 81
e 17 82
e 17 83
e 17 84
e 17 89
e 17 91
e 17 94
e 17 98
e 17 99
e 17 100
e 18 19
e 18 21
e 18 23
e 18 24
e 18 27
e 18 28
e 18 32
e 18 33
e 18 34
e 18 36
e 18 37
e 18 38
e 18 39
e 18 40
e 18 42
e 18 44
e 18 47
e 18 48
e 18 49
e 18 52
e 18 54
e 18 55
e 18 58
e 18 60
e 18 61
e 18 62
e 18 65
e 18 67
e 18 70
e 18 71
e 18 72
e 18 73
e 18 75
e 18 79
e 18 81
e 18 83
e 18 84
e 18 86
e 18 88
e 18 90
e 18 91
e 18 93
e 18 94
e 18 98
e 19 22
e 19 23
e 19 25
e 19 27
e 19 30
e 19 33
e 19 35
e 19 36
e 19 39
e 19 41
e 19 42
e 19 44
e 19 45
e 19 46
e 19 47
e 19 48
e 19 50
e 19 52
e 19 54
e 19 55
e 19 57
e 19 58
e 19 59
e 19 60
e 19 61
e 19 62
e 19 63
e 19 65
e 19 66
e 19 67
e 19 70
e 19 71
e 19 73
e 19 80
e 19 81
e 19 82
e 19 84
e 19 87
e 19 88
e 19 92
e 19 93
e 19 95
e 19 96
e 19 97
e 19 99
e 20 22
e 20 23
e 20 24
e 20 25
e 20 28
e 20 30
e 20 31
e 20 32
e 20 33
e 20 34
e 20 35
e 20 36
e 20 38
e 20 39
e 20 40
e 20 41
e 20 42
e 20 43
e 20 44
e 20 53
e 20 54
e 20 56
e 20 57
e 20 58
e 20 59
e 20 68
e 20 71
e 20 77
e 20 78
e 20 79
e 20 80
e 20 84
e 20 86
e 20 88
e 20 90
e 20 91
e 20 92
e 20 93
e 20 94
e 20 96
e 20 97
e 20 98
e 21 24
e 21 25
e 21 26
e 21 27
e 21 28
e 21 29
e 21 33
e 21 35
e 21 36
e 21 37
e 21 38
e 21 39
e 21 41
e 21 44
e 21 46
e 21 47
e 21 49
e 21 51
e 21 53
e 21 54
e 21 55
e 21 56
e 21 59
e 21 60
e 21 62
e 21 63
e 21 65
e 21 68
e 21 69
e 21 71
e 21 72
e 21 73
e 21 78
e 21 79
e 21 81
e 21 82
e 21 83
e 21 84
e 21 89
e 21 90
e 21 94
e 21 95
e 21 96
e 21 99
e 22 23
e 22 25
e 22 26
e 22 27
e 22 28
e 22 29
e 22 31
e 22 32
e 22 35
e 22 36
e 22 37
e 22 38
e 22 40
e 22 43
e 22 44
e 22 45
e 22 51
e 22 52
e 22 53
e 22 54
e 22 58
e 22 59
e 22 60
e 22 62
e 22 63
e 22 65
e 22 66
e 22 68
e 22 69
e 22 71
e 22 72
e 22 73
e 22 75
e 22 78
e 22 87
e 22 90
e 22 91
e 22 95
e 22 99
e 22 100
e 23 24
e 23 26
e 23 27
e 23 29
e 23 31
e 23 32
e 23 33
e 23 34
e 23 37
e 23 38
e 23 40
e 23 42
e 23 43
e 23 44
e 23 45
e 23 49
e 23 50
e 23 51
e 23 55
e 23 56
e 23 59
e 23 61
e 23 63
e 23 64
e 23 66
e 23 68
e 23 69
e 23 71
e 23 73
e 23 74
e 23 75
e 23 78
e 23 81
e 23 84
e 23 90
e 23 91
e 23 94
e 23 97
e 23 100
e 24 28
e 24 32
e 24 33
e 24 34
e 24 36
e 24 37
e 24 39
e 24 42
e 24 43
e 24 45
e 24 46
e 24 47
e 24 49
e 24 51
e 24 52
e 24 55
e 24 57
e 24 58
e 24 60
e 24 61
e 24 63
e 24 64
e 24 65
e 24 67
e 24 68
e 24 70
e 24 71
e 24 72
e 24 73
e 24 74
e 24 84
e 24 85
e 24 87
e 24 89
e 24 92
e 24 96
e 24 97
e 24 98
e 24 99
e 25 28
e 25 29
e 25 32
e 25 34
e 25 35
e 25 37
e 25 38
e 25 40
e 25 43
e 25 47
e 25 48
e 25 49
e 25 50
e 25 51
e 25 56
e 25 58
e 25 61
e 25 63
e 25 64
e 25 65
e 25 68
e 25 69
e 25 71
e 25 72
e 25 73
e 25 74
e 25 76
e 25 77
e 25 78
e 25 79
e 25 81
e 25 82
e 25 84
e 25 85
e 25 90
e 25 91
e 25 92
e 25 95
e 25 96
e 25 98
e 25 99
e 26 33
e 26 34
e 26 35
e 26 36
e 26 37
e 26 38
e 26 39
e 26 43
e 26 45
e 26 46
e 26 49
e 26 51
e 26 53
e 26 54
e 26 57
e 26 59
e 26 61
e 26 65
e 26 67
e 26 70
e 26 71
e 26 72
e 26 73
e 26 74
e 26 75
e 26 76
e 26 77
e 26 78
e 26 81
e 26 82
e 26 83
e 26 84
e 26 85
e 26 87
e 26 93
e 26 94
e 26 95
e 26 96
e 26 97
e 26 99
e 26 100
e 27 30
e 27 31
e 27 32
e 27 33
e 27 35
e 27 36
e 27 38
e 27 39
e 27 41
e 27 42
e 27 43
e 27 45
e 27 46
e 27 49
e 27 50
e 27 51
e 27 54
e 27 56
e 27 57
e 27 58
e 27 59
e 27 61
e 27 65
e 27 66
e 27 67
e 27 69
e 27 70
e 27 71
e 27 73
e 27 74
e 27 75
e 27 76
e 27 80
e 27 86
e 27 87
e 27 88
e 27 90
e 27 91
e 27 92
e 27 93
e 28 30
e 28 31
e 28 33
e 28 34
e 28 38
e 28 39
e 28 40
e 28 41
e 28 42
e 28 43
e 28 45
e 28 46
e 28 47
e 28 48
e 28 50
e 28 51
e 28 52
e 28 54
e 28 61
e 28 62
e 28 63
e 28 64
e 28 65
e 28 67
e 28 69
e 28 70
e 28 72
e 28 74
e 28 76
e 28 77
e 28 80
e 28 84
e 28 86
e 28 92
e 28 94
e 28 98
e 28 99
e 29 30
e 29 31
e 29 33
e 29 35
e 29 36
e 29 38
e 29 39
e 29 42
e 29 44
e 29 45
e 29 46
e 29 48
e 29 49
e 29 54
e 29 56
e 29 57
e 29 59
e 29 60
e 29 61
e 29 63
e 29 66
e 29 67
e 29 68
e 29 69
e 29 72
e 29 76
e 29 77
e 29 79
e 29 82
e 29 83
e 29 85
e 29 86
e 29 87
e 29 88
e 29 89
e 29 91
e 29 92
e 29 93
e 29 95
e 29 99
e 30 31
e 30 32
e 30 34
e 30 35
e 30 36
e 30 37
e 30 38
e 30 39
e 30 40
e 30 41
e 30 42
e 30 44
e 30 46
e 30 49
e 30 52
e 30 55
e 30 57
e 30 58
e 30 59
e 30 61
e 30 67
e 30 70
e 30 71
e 30 72
e 30 75
e 30 76
e 30 77
e 30 80
e 30 81
e 30 86
e 30 87
e 30 88
e 30 90
e 30 91
e 30 96
e 30 97
e 30 98
e 31 33
e 31 37
e 31 38
e 31 42
e 31 43
e 31 44
e 31 45
e 31 46
e 31 47
e 31 50
e 31 51
e 31 53
e 31 56
e 31 57
e 31 59
e 31 60
e 31 61
e 31 62
e 31 64
e 31 66
e 31 67
e 31 69
e 31 70
e 31 76
e 31 78
e 31 81
e 31 82
e 31 87
e 31 89
e 31 91
e 31 92
e 31 94
e 31 97
e 31 99
e 31 100
e 32 33
e 32 34
e 32 35
e 32 37
e 32 38
e 32 39
e 32 41
e 32 42
e 32 44
e 32 47
e 32 49
e 32 51
e 32 52
e 32 53
e 32 55
e 32 58
e 32 61
e 32 62
e 32 64
e 32 66
e 32 69
e 32 72
e 32 76
e 32 78
e 32 80
e 32 81
e 32 82
e 32 84
e 32 85
e 32 88
e 32 89
e 32 92
e 32 93
e 32 95
e 32 96
e 32 98
e 32 99
e 32 100
e 33 35
e 33 39
e 33 41
e 33 42
e 33 43
e 33 47
e 33 49
e 33 52
e 33 53
e 33 54
e 33 55
e 33 56
e 33 58
e 33 59
e 33 60
e 33 61
e 33 64
e 33 65
e 33 68
e 33 70
e 33 71
e 33 74
e 33 75
e 33 77
e 33 79
e 33 80
e 33 83
e 33 86
e 33 88
e 33 90
e 33 91
e 33 97
e 34 36
e 34 37
e 34 39
e 34 40
e 34 41
e 34 44
e 34 46
e 34 47
e 34 48
e 34 52
e 34 53
e 34 54
e 34 55
e 34 58
e 34 59
e 34 60
e 34 64
e 34 67
e 34 70
e 34 71
e 34 74
e 34 75
e 34 78
e 34 80
e 34 83
e 34 84
e 34 86
e 34 88
e 34 89
e 34 90
e 34 91
e 34 92
e 34 96
e 34 97
e 34 98
e 34 100
e 35 38
e 35 41
e 35 42
e 35 43
e 35 44
e 35 45
e 35 47
e 35 48
e 35 49
e 35 50
e 35 53
e 35 56
e 35 57
e 35 58
e 35 63
e 35 66
e 35 67
e 35 68
e 35 71
e 35 72
e 35 77
e 35 78
e 35 83
e 35 85
e 35 89
e 35 90
e 35 91
e 35 92
e 35 95
e 35 97
e 35 99
e 36 37
e 36 39
e 36 40
e 36 41
e 36 42
e 36 43
e 36 45
e 36 46
e 36 48
e 36 51
e 36 53
e 36 54
e 36 56
e 36 57
e 36 59
e 36 60
e 36 63
e 36 66
e 36 67
e 36 68
e 36 71
e 36 72
e 36 78
e 36 79
e 36 80
e 36 81
e 36 83
e 36 84
e 36 85
e 36 86
e 36 89
e 36 91
e 36 92
e 36 93
e 36 94
e 37 42
e 37 43
e 37 46
e 37 47
e 37 49
e 37 50
e 37 51
e 37 52
e 37 53
e 37 54
e 37 55
e 37 56
e 37 57
e 37 58
e 37 59
e 37 64
e 37 66
e 37 67
e 37 68
e 37 69
e 37 70
e 37 73
e 37 77
e 37 79
e 37 80
e 37 85
e 37 88
e 37 89
e 37 90
e 37 94
e 37 100
e 38 39
e 38 41
e 38 44
e 38 45
e 38 46
e 38 48
e 38 52
e 38 56
e 38 57
e 38 58
e 38 62
e 38 63
e 38 64
e 38 65
e 38 66
e 38 68
e 38 76
e 38 78
e 38 81
e 38 82
e 38 83
e 38 85
e 38 87
e 38 88
e 38 90
e 38 93
e 38 95
e 38 98
e 38 100
e 39 40
e 39 44
e 39 45
e 39 47
e 39 48
e 39 51
e 39 52
e 39 54
e 39 56
e 39 57
e 39 59
e 39 60
e 39 61
e 39 65
e 39 66
e 39 73
e 39 76
e 39 81
e 39 82
e 39 83
e 39 85
e 39 86
e 39 89
e 39 90
e 39 92
e 39 94
e 40 42
e 40 44
e 40 45
e 40 46
e 40 48
e 40 49
e 40 50
e 40 52
e 40 53
e 40 54
e 40 55
e 40 56
e 40 62
e 40 65
e 40 67
e 40 69
e 40 70
e 40 73
e 40 75
e 40 77
e 40 79
e 40 81
e 40 83
e 40 88
e 40 89
e 40 91
e 40 92
e 40 93
e 40 95
e 40 97
e 40 99
e 40 100
e 41 42
e 41 43
e 41 44
e 41 45
e 41 47
e 41 48
e 41 49
e 41 50
e 41 53
e 41 54
e 41 55
e 41 56
e 41 59
e 41 60
e 41 63
e 41 65
e 41 68
e 41 69
e 41 72
e 41 73
e 41 76
e 41 79
e 41 80
e 41 81
e 41 82
e 41 84
e 41 89
e 41 91
e 41 92
e 41 93
e 41 94
e 41 96
e 41 99
e 42 43
e 42 44
e 42 47
e 42 50
e 42 57
e 42 60
e 42 62
e 42 63
e 42 65
e 42 66
e 42 68
e 42 69
e 42 70
e 42 73
e 42 76
e 42 77
e 42 78
e 42 80
e 42 81
e 42 83
e 42 84
e 42 85
e 42 87
e 42 90
e 42 94
e 42 99
e 43 45
e 43 48
e 43 50
e 43 51
e 43 52
e 43 57
e 43 58
e 43 60
e 43 61
e 43 62
e 43 64
e 43 65
e 43 66
e 43 67
e 43 68
e 43 73
e 43 74
e 43 77
e 43 78
e 43 82
e 43 84
e 43 86
e 43 87
e 43 89
e 43 97
e 43 98
e 43 99
e 44 45
e 44 47
e 44 49
e 44 50
e 44 51
e 44 52
e 44 53
e 44 55
e 44 57
e 44 58
e 44 60
e 44 62
e 44 64
e 44 65
e 44 66
e 44 68
e 44 69
e 44 74
e 44 78
e 44 80
e 44 85
e 44 91
e 44 92
e 44 95
e 44 99
e 44 100
e 45 48
e 45 50
e 45 53
e 45 55
e 45 56
e 45 60
e 45 61
e 45 63
e 45 64
e 45 65
e 45 69
e 45 70
e 45 73
e 45 74
e 45 76
e 45 77
e 45 78
e 45 79
e 45 83
e 45 87
e 45 88
e 45 89
e 45 92
e 45 93
e 45 94
e 45 95
e 46 47
e 46 48
e 46 49
e 46 51
e 46 52
e 46 53
e 46 54
e 46 55
e 46 57
e 46 58
e 46 63
e 46 70
e 46 71
e 46 72
e 46 74
e 46 75
e 46 76
e 46 78
e 46 80
e 46 81
e 46 83
e 46 93
e 46 95
e 46 98
e 47 48
e 47 54
e 47 55
e 47 57
e 47 58
e 47 60
e 47 62
e 47 63
e 47 67
e 47 68
e 47 71
e 47 72
e 47 74
e 47 75
e 47 79
e 47 80
e 47 85
e 47 86
e 47 90
e 47 92
e 47 93
e 47 95
e 47 96
e 47 100
e 48 51
e 48 52
e 48 54
e 48 55
e 48 56
e 48 58
e 48 59
e 48 63
e 48 64
e 48 65
e 48 68
e 48 69
e 48 70
e 48 71
e 48 72
e 48 74
e 48 81
e 48 83
e 48 88
e 48 90
e 48 94
e 48 96
e 48 97
e 48 99
e 49 50
e 49 56
e 49 60
e 49 61
e 49 65
e 49 66
e 49 73
e 49 74
e 49 80
e 49 81
e 49 82
e 49 83
e 49 84
e 49 87
e 49 89
e 49 91
e 49 94
e 49 95
e 49 98
e 49 100
e 50 51
e 50 52
e 50 55
e 50 56
e 50 59
e 50 62
e 50 66
e 50 67
e 50 70
e 50 71
e 50 72
e 50 74
e 50 75
e 50 77
e 50 78
e 50 80
e 50 81
e 50 84
e 50 88
e 50 92
e 50 93
e 50 94
e 50 98
e 50 99
e 51 52
e 51 54
e 51 57
e 51 58
e 51 60
e 51 61
e 51 62
e 51 63
e 51 70
e 51 71
e 51 74
e 51 76
e 51 79
e 51 83
e 51 85
e 51 86
e 51 93
e 51 95
e 51 96
e 51 98
e 51 100
e 52 53
e 52 55
e 52 60
e 52 62
e 52 63
e 52 64
e 52 66
e 52 67
e 52 68
e 52 69
e 52 70
e 52 71
e 52 75
e 52 76
e 52 77
e 52 80
e 52 84
e 52 89
e 52 90
e 52 97
e 52 98
e 53 54
e 53 57
e 53 58
e 53 60
e 53 62
e 53 65
e 53 67
e 53 71
e 53 72
e 53 74
e 53 75
e 53 76
e 53 77
e 53 78
e 53 79
e 53 82
e 53 84
e 53 86
e 53 89
e 53 91
e 53 94
e 53 95
e 53 96
e 53 98
e 53 99
e 53 100
e 54 55
e 54 57
e 54 58
e 54 59
e 54 61
e 54 62
e 54 63
e 54 64
e 54 66
e 54 69
e 54 70
e 54 71
e 54 75
e 54 80
e 54 81
e 54 83
e 54 84
e 54 86
e 54 87
e 54 92
e 54 99
e 54 100
e 55 56
e 55 63
e 55 65
e 55 66
e 55 69
e 55 73
e 55 75
e 55 78
e 55 79
e 55 80
e 55 81
e 55 84
e 55 87
e 55 88
e 55 89
e 55 90
e 55 91
e 55 93
e 55 95
e 55 97
e 55 99
e 55 100
e 56 57
e 56 58
e 56 60
e 56 63
e 56 66
e 56 68
e 56 72
e 56 74
e 56 75
e 56 76
e 56 78
e 56 79
e 56 80
e 56 82
e 56 83
e 56 85
e 56 86
e 56 92
e 56 93
e 56 94
e 56 95
e 56 96
e 57 63
e 57 66
e 57 67
e 57 70
e 57 74
e 57 75
e 57 77
e 57 78
e 57 82
e 57 85
e 57 86
e 57 89
e 57 91
e 57 92
e 57 93
e 57 94
e 57 100
e 58 61
e 58 62
e 58 65
e 58 66
e 58 67
e 58 69
e 58 71
e 58 72
e 58 75
e 58 76
e 58 79
e 58 80
e 58 83
e 58 87
e 58 92
e 58 93
e 58 100
e 59 60
e 59 61
e 59 63
e 59 64
e 59 68
e 59 70
e 59 71
e 59 75
e 59 77
e 59 79
e 59 80
e 59 82
e 59 85
e 59 86
e 59 91
e 59 93
e 59 96
e 59 97
e 60 62
e 60 69
e 60 70
e 60 71
e 60 72
e 60 74
e 60 76
e 60 77
e 60 79
e 60 80
e 60 83
e 60 84
e 60 88
e 60 89
e 60 92
e 60 94
e 60 96
e 60 98
e 60 99
e 61 62
e 61 64
e 61 65
e 61 67
e 61 68
e 61 70
e 61 71
e 61 72
e 61 73
e 61 75
e 61 81
e 61 85
e 61 86
e 61 87
e 61 88
e 61 90
e 61 94
e 61 95
e 61 100
e 62 63
e 62 64
e 62 66
e 62 68
e 62 70
e 62 71
e 62 75
e 62 77
e 62 79
e 62 80
e 62 81
e 62 82
e 62 86
e 62 88
e 62 89
e 62 93
e 62 97
e 62 99
e 63 66
e 63 68
e 63 70
e 63 72
e 63 74
e 63 76
e 63 78
e 63 82
e 63 83
e 63 84
e 63 88
e 63 90
e 63 94
e 63 95
e 63 96
e 63 100
e 64 67
e 64 71
e 64 72
e 64 73
e 64 74
e 64 75
e 64 77
e 64 78
e 64 81
e 64 85
e 64 86
e 64 87
e 64 89
e 64 90
e 64 91
e 64 95
e 64 97
e 65 68
e 65 72
e 65 74
e 65 76
e 65 77
e 65 78
e 65 81
e 65 86
e 65 87
e 65 89
e 65 92
e 65 94
e 65 99
e 66 69
e 66 72
e 66 76
e 66 79
e 66 80
e 66 82
e 66 84
e 66 88
e 66 92
e 66 95
e 66 96
e 66 97
e 66 98
e 66 99
e 67 68
e 67 74
e 67 76
e 67 78
e 67 82
e 67 84
e 67 85
e 67 86
e 67 87
e 67 88
e 67 89
e 67 90
e 67 95
e 67 98
e 68 73
e 68 76
e 68 77
e 68 82
e 68 83
e 68 86
e 68 87
e 68 91
e 68 93
e 68 97
e 69 71
e 69 72
e 69 73
e 69 75
e 69 77
e 69 79
e 69 80
e 69 83
e 69 84
e 69 85
e 69 87
e 69 88
e 69 91
e 69 92
e 69 93
e 69 95
e 69 97
e 70 77
e 70 82
e 70 83
e 70 85
e 70 89
e 70 92
e 70 94
e 70 97
e 70 98
e 70 99
e 70 100
e 71 72
e 71 74
e 71 75
e 71 76
e 71 77
e 71 78
e 71 88
e 71 89
e 71 90
e 71 96
e 72 75
e 72 76
e 72 84
e 72 88
e 72 92
e 72 93
e 72 94
e 72 100
e 73 74
e 73 75
e 73 77
e 73 80
e 73 81
e 73 82
e 73 85
e 73 88
e 73 90
e 73 92
e 73 93
e 73 95
e 73 96
e 73 98
e 73 99
e 73 100
e 74 78
e 74 83
e 74 84
e 74 86
e 74 88
e 74 91
e 74 92
e 74 93
e 74 96
e 74 100
e 75 77
e 75 78
e 75 81
e 75 85
e 75 86
e 75 94
e 75 95
e 76 79
e 76 80
e 76 82
e 76 88
e 76 91
e 76 93
e 76 95
e 76 96
e 76 98
e 77 78
e 77 82
e 77 84
e 77 86
e 77 95
e 77 99
e 77 100
e 78 79
e 78 85
e 78 87
e 78 89
e 78 90
e 78 96
e 78 97
e 78 100
e 79 80
e 79 81
e 79 82
e 79 85
e 79 86
e 79 88
e 79 92
e 79 95
e 79 96
e 79 98
e 79 99
e 80 83
e 80 89
e 80 90
e 80 91
e 80 94
e 80 98
e 81 83
e 81 87
e 81 88
e 81 89
e 81 91
e 81 97
e 81 98
e 82 83
e 82 84
e 82 85
e 82 87
e 82 89
e 82 95
e 82 97
e 82 100
e 83 84
e 83 85
e 83 86
e 83 88
e 83 90
e 83 91
e 83 97
e 83 98
e 84 89
e 84 96
e 84 99
e 85 86
e 85 88
e 85 91
e 85 92
e 85 93
e 85 95
e 85 99
e 86 88
e 86 90
e 86 93
e 86 95
e 86 98
e 87 89
e 87 90
e 87 91
e 87 92
e 87 95
e 87 96
e 87 97
e 87 98
e 87 100
e 88 91
e 88 96
e 88 100
e 89 94
e 89 97
e 89 98
e 90 92
e 90 93
e 90 94
e 90 96
e 90 98
e 91 93
e 91 94
e 91 100
e 93 94
e 93 100
e 96 97
e 98 99
e 99 100
n 30 2
n 33 5
n 48 5
n 62 1
n 73 3
n 76 2
n 78 2
n 84 4
n 92 3
n 94 5
